# Solution for model Poisoning_Attack
# Objective value = 1.3182395681099329e-02
x_poison_num[1,1] 0
x_poison_num[2,1] 0
x_poison_num[3,1] 0
x_poison_num[4,1] 0
x_poison_num[5,1] 1
x_poison_num[6,1] 0
x_poison_num[7,1] 0
x_poison_num[8,1] 0
x_poison_num[9,1] 0
x_poison_num[10,1] 0
x_poison_num[11,1] 0
x_poison_num[12,1] 0
x_poison_cat[1,1,1] 0
x_poison_cat[1,1,2] 0
x_poison_cat[1,1,3] 1
x_poison_cat[2,1,1] 0
x_poison_cat[2,1,2] 0
x_poison_cat[2,1,3] 1
x_poison_cat[3,1,1] 0
x_poison_cat[3,1,2] 0
x_poison_cat[3,1,3] 1
x_poison_cat[4,1,1] 0
x_poison_cat[4,1,2] 0
x_poison_cat[4,1,3] 1
x_poison_cat[5,1,1] 1
x_poison_cat[5,1,2] 0
x_poison_cat[5,1,3] 0
x_poison_cat[6,1,1] 0
x_poison_cat[6,1,2] 0
x_poison_cat[6,1,3] 1
x_poison_cat[7,1,1] 0
x_poison_cat[7,1,2] 0
x_poison_cat[7,1,3] 1
x_poison_cat[8,1,1] 0
x_poison_cat[8,1,2] 0
x_poison_cat[8,1,3] 1
x_poison_cat[9,1,1] 0
x_poison_cat[9,1,2] 0
x_poison_cat[9,1,3] 1
x_poison_cat[10,1,1] 0
x_poison_cat[10,1,2] 0
x_poison_cat[10,1,3] 1
x_poison_cat[11,1,1] 0
x_poison_cat[11,1,2] 0
x_poison_cat[11,1,3] 1
x_poison_cat[12,1,1] 0
x_poison_cat[12,1,2] 0
x_poison_cat[12,1,3] 1
weights_num[1] -4.3136459749645506e-03
self.weights_cat[1,1] -1.3954547021224120e-03
self.weights_cat[1,2] 5.9215565097448328e-03
self.weights_cat[1,3] 3.8332653741944972e-02
bias 2.3416191463412803e-01
C53 0
C54 0
C55 0
C56 0
C57 -4.3136459749645506e-03
C58 0
C59 0
C60 0
C61 0
C62 0
C63 0
C64 0
C65 0
C66 0
C67 0
C68 0
C69 0
C70 0
C71 0
C72 0
C73 0
C74 0
C75 0
C76 0
C77 -1.3954547021224188e-03
C78 0
C79 0
C80 0
C81 0
C82 0
C83 0
C84 0
C85 0
C86 0
C87 0
C88 0
C89 0
C90 0
C91 0
C92 0
C93 0
C94 0
C95 0
C96 0
C97 0
C98 0
C99 0
C100 0
C101 0
C102 0
C103 0
C104 0
C105 0
C106 0
C107 0
C108 0
C109 0
C110 0
C111 0
C112 0
C113 -4.3136459749645506e-03
C114 0
C115 0
C116 -6.9388939039072284e-18
C117 0
C118 0
C119 0
C120 0
C121 0
C122 0
C123 0
C124 0
C125 0
C126 0
C127 0
C128 0
C129 0
C130 0
C131 0
C132 0
C133 0
C134 0
C135 0
C136 0
C137 0
C138 0
C139 0
C140 0
C141 0
C142 0
C143 0
C144 0
C145 3.8332653741944972e-02
C146 0
C147 0
C148 0
C149 0
C150 0
C151 0
C152 0
C153 0
C154 3.8332653741944972e-02
C155 0
C156 0
C157 0
C158 0
C159 0
C160 0
C161 0
C162 0
C163 3.8332653741944972e-02
C164 0
C165 0
C166 0
C167 0
C168 0
C169 0
C170 0
C171 0
C172 3.8332653741944972e-02
C173 -1.3954547021224062e-03
C174 0
C175 0
C176 0
C177 0
C178 0
C179 0
C180 0
C181 0
C182 0
C183 0
C184 0
C185 0
C186 0
C187 0
C188 0
C189 0
C190 0.038332653741945
C191 0
C192 0
C193 0
C194 0
C195 0
C196 0
C197 0
C198 0
C199 3.8332653741944972e-02
C200 0
C201 0
C202 0
C203 0
C204 0
C205 0
C206 0
C207 0
C208 0.038332653741945
C209 0
C210 0
C211 0
C212 0
C213 0
C214 0
C215 0
C216 0
C217 0.038332653741945
C218 0
C219 0
C220 0
C221 0
C222 0
C223 0
C224 0
C225 0
C226 0.038332653741945
C227 0
C228 0
C229 0
C230 0
C231 0
C232 0
C233 0
C234 0
C235 0.038332653741945
C236 0
C237 0
C238 0
C239 0
C240 0
C241 0
C242 0
C243 0
C244 3.8332653741944944e-02
C245 0
C246 0
C247 0
C248 0
C249 -4.3136459749645506e-03
C250 0
C251 0
C252 0
C253 0
C254 0
C255 0
C256 0
C257 0
C258 0
C259 3.8332653741944972e-02
C260 0
C261 0
C262 3.8332653741944972e-02
C263 0
C264 0
C265 3.8332653741944944e-02
C266 0
C267 0
C268 3.8332653741944972e-02
C269 -1.3954547021224188e-03
C270 0
C271 0
C272 0
C273 0
C274 3.8332653741944972e-02
C275 0
C276 0
C277 3.8332653741944972e-02
C278 0
C279 0
C280 3.8332653741944972e-02
C281 0
C282 0
C283 3.8332653741944972e-02
C284 0
C285 0
C286 3.8332653741944972e-02
C287 0
C288 0
C289 3.8332653741944972e-02
C290 0
C291 0
C292 3.8332653741944958e-02
C293 0
C294 0
C295 0
C296 0
C297 2.3416191463412803e-01
C298 0
C299 0
C300 0
C301 0
C302 0
C303 0
C304 0
C305 2.7755575615628914e-17
C306 0
C307 2.3416191463412803e-01
C308 2.7755575615628914e-17
C309 0
C310 2.3416191463412803e-01
C311 2.7755575615628914e-17
C312 0
C313 2.3416191463412803e-01
C314 0
C315 0
C316 2.3416191463412805e-01
C317 2.3416191463412805e-01
C318 0
C319 0
C320 2.7755575615628914e-17
C321 0
C322 2.3416191463412803e-01
C323 0
C324 0
C325 2.3416191463412805e-01
C326 0
C327 0
C328 2.3416191463412805e-01
C329 0
C330 0
C331 2.3416191463412805e-01
C332 0
C333 0
C334 2.3416191463412805e-01
C335 0
C336 0
C337 2.3416191463412805e-01
C338 0
C339 0
C340 2.3416191463412803e-01
